
List of user-set options:

                                    Name   Value                used
                        file_print_level = 5                     yes
                   hessian_approximation = limited-memory        yes
                                  hsllib = /home/grant/packages/ThirdParty-HSL/.libs/libcoinhsl.so  yes
                           linear_solver = ma97                  yes
                                max_iter = 500                   yes
                             output_file = IPOPT.out             yes
                             print_level = 0                     yes
                      print_user_options = yes                   yes
                                      sb = yes                   yes
This is Ipopt version 3.14.7, running with linear solver ma97.

Number of nonzeros in equality constraint Jacobian...:       60
Number of nonzeros in inequality constraint Jacobian.:     3660
Number of nonzeros in Lagrangian Hessian.............:        0

Total number of variables............................:       15
                     variables with only lower bounds:        1
                variables with lower and upper bounds:        0
                     variables with only upper bounds:        0
Total number of equality constraints.................:        4
Total number of inequality constraints...............:      244
        inequality constraints with only lower bounds:        0
   inequality constraints with lower and upper bounds:      183
        inequality constraints with only upper bounds:       61

iter    objective    inf_pr   inf_du lg(mu)  ||d||  lg(rg) alpha_du alpha_pr  ls
   0  1.0000000e+01 2.29e+00 5.87e-05   0.0 0.00e+00    -  0.00e+00 0.00e+00   0
   1  1.4321607e+01 8.31e-01 9.95e+00  -1.4 4.80e+00    -  1.85e-01 9.01e-01f  1
   2  1.5775046e+01 5.43e-01 8.66e+00  -1.1 3.32e+00    -  8.09e-01 4.38e-01f  1
   3  2.1418386e+01 1.41e-01 7.16e+00  -1.4 5.64e+00    -  9.05e-01 1.00e+00h  1
   4  2.3849980e+01 3.62e-02 3.22e+00  -1.8 2.98e+00    -  1.00e+00 8.16e-01h  1
   5  2.4920213e+01 1.29e-03 6.90e-01  -2.5 1.07e+00    -  1.00e+00 1.00e+00h  1
   6  2.4955300e+01 2.16e-05 1.93e-01  -3.0 5.85e-02    -  9.99e-01 1.00e+00h  1
   7  2.4903644e+01 3.42e-06 9.42e-01  -3.8 6.41e-02    -  1.00e+00 8.06e-01h  1
   8  2.4893284e+01 2.87e-05 2.16e+00  -4.4 1.11e-01    -  1.00e+00 4.79e-01h  1
   9  2.4892597e+01 3.72e-05 2.22e+00 -10.3 1.16e-01    -  5.41e-01 1.88e-01h  1
iter    objective    inf_pr   inf_du lg(mu)  ||d||  lg(rg) alpha_du alpha_pr  ls
  10  2.4891639e+01 1.67e-04 2.49e-01  -3.9 1.59e-01    -  1.00e+00 8.96e-01f  1
  11  2.4891328e+01 1.28e-05 1.41e-01  -4.5 3.43e-02    -  1.00e+00 9.27e-01h  1
  12  2.4891164e+01 4.44e-16 1.37e-03  -4.8 1.48e-02    -  1.00e+00 1.00e+00h  1
  13  2.4891052e+01 5.61e-08 1.58e-01  -5.7 1.06e-02    -  1.00e+00 6.76e-01h  1
  14  2.4891003e+01 0.00e+00 4.66e-02  -7.2 4.25e-03    -  1.00e+00 8.60e-01h  1
  15  2.4890996e+01 4.44e-16 4.52e-06  -8.2 3.60e-04    -  1.00e+00 9.92e-01h  1
  16  2.4890996e+01 0.00e+00 9.27e-08 -11.0 7.01e-06    -  1.00e+00 1.00e+00h  1
  17  2.4890996e+01 8.88e-16 2.44e-10 -11.0 4.39e-09    -  1.00e+00 1.00e+00h  1

Number of Iterations....: 17

                                   (scaled)                 (unscaled)
Objective...............:   2.4890995659980398e+01    2.4890995659980398e+01
Dual infeasibility......:   2.4414273380735096e-10    2.4414273380735096e-10
Constraint violation....:   8.8817841970012523e-16    8.8817841970012523e-16
Variable bound violation:   0.0000000000000000e+00    0.0000000000000000e+00
Complementarity.........:   1.0000454961465197e-11    1.0000454961465197e-11
Overall NLP error.......:   2.4414273380735096e-10    2.4414273380735096e-10


Number of objective function evaluations             = 18
Number of objective gradient evaluations             = 18
Number of equality constraint evaluations            = 18
Number of inequality constraint evaluations          = 18
Number of equality constraint Jacobian evaluations   = 18
Number of inequality constraint Jacobian evaluations = 18
Number of Lagrangian Hessian evaluations             = 0
Total seconds in IPOPT                               = 1.240

EXIT: Optimal Solution Found.
